NAME: instance_2158
TYPE: TSP
DIMENSION: 20
EDGE_WEIGHT_TYPE: EUC_2D
NODE_COORD_SECTION
0 78.04 19.49
1 77.22 55.20
2 39.83 86.80
3 22.62 99.28
4 8.38 66.34
5 51.68 4.77
6 98.24 33.36
7 34.94 45.34
8 30.93 51.74
9 7.00 43.72
10 99.06 32.72
11 32.54 8.59
12 14.07 40.02
13 34.92 43.24
14 1.79 57.86
15 43.09 97.10
16 47.34 46.48
17 56.60 79.39
18 67.85 22.14
19 37.81 3.24
EOF
